
Gurobi 10.0.1 (linux64) logging started Sun Nov 26 15:59:32 2023

Set parameter LogFile to value "ArtificialInstance/ExperimentV2/S2T5K3/AdRo/gurobiSpRo48.txt"
Gurobi Optimizer version 10.0.1 build v10.0.1rc0 (linux64)

CPU model: AMD EPYC 7H12 64-Core Processor, instruction set [SSE2|AVX|AVX2]
Thread count: 128 physical cores, 128 logical processors, using up to 32 threads

Academic license 656792 - for non-commercial use only - registered to b.___@student.vu.nl
Optimize a model with 16352 rows, 15139 columns and 59000 nonzeros
Model fingerprint: 0x3aba044b
Variable types: 1 continuous, 15138 integer (15138 binary)
Coefficient statistics:
  Matrix range     [1e+00, 4e+01]
  Objective range  [1e+00, 2e+01]
  Bounds range     [1e+00, 1e+00]
  RHS range        [1e+00, 1e+00]
Presolve removed 8878 rows and 8317 columns
Presolve time: 0.19s
Presolved: 7474 rows, 6822 columns, 26757 nonzeros
Variable types: 1 continuous, 6821 integer (6821 binary)

Root relaxation: objective 8.560536e+01, 1829 iterations, 0.07 seconds (0.05 work units)

    Nodes    |    Current Node    |     Objective Bounds      |     Work
 Expl Unexpl |  Obj  Depth IntInf | Incumbent    BestBd   Gap | It/Node Time

H    0     0                      85.6053594   81.39089  4.92%     -    0s
     0     0          -    0        85.60536   85.60536  0.00%     -    0s

Explored 1 nodes (2972 simplex iterations) in 0.34 seconds (0.25 work units)
Thread count was 32 (of 128 available processors)

Solution count 1: 85.6054 

Optimal solution found (tolerance 1.00e-04)
Best objective 8.560535943004e+01, best bound 8.560535943004e+01, gap 0.0000%
